benchmarks/bfuzz0/7362614416151138031411250292704132381.smt2
(set-logic QF_FP)
(declare-const x0 (_ FloatingPoint 8 24))
(declare-const x1 (_ FloatingPoint 8 24))
(declare-const x2 (_ FloatingPoint 8 24))
(declare-const x3 (_ FloatingPoint 8 24))
(declare-const x4 (_ FloatingPoint 8 24))
(assert (fp.lt (fp.sub RNE x4 x3) (fp.div RNE x3 x4)))
(assert (fp.gt (fp.sub RNE x3 x4) (fp.neg x3)))
(assert (fp.geq (fp.sub RNE x4 x4) (fp.sub RNE x2 x3)))
(assert (fp.gt (fp.neg x4) (fp.mul RNE x0 x1)))
(assert (fp.eq (fp.neg x3) (fp.sub RNE x2 x3)))
(assert (fp.gt (fp.div RNE x0 x3) (fp.neg x4)))
(assert (fp.eq (fp.add RNE x1 x4) (fp.div RNE x2 x1)))
(assert (fp.eq (fp.neg x4) (fp.mul RNE x2 x1)))
(assert (fp.gt (fp.sub RNE x0 x1) (fp.div RNE x0 x1)))
(check-sat)
