db/data/7362614416151138031411250292704132381.z3.out
sat
-------------------
39.742702780
